
Gurobi 6.0.4 (win64) logging started 10/07/15 16:55:19

Server capacity available on gurobi-preprod.phx.gapinc.dev - running now
Optimize a model with 4689 rows, 2892 columns and 13387 nonzeros
Coefficient statistics:
  Matrix range    [2e-02, 1e+06]
  Objective range [1e+00, 1e+02]
  Bounds range    [9e-02, 1e+06]
  RHS range       [3e-01, 1e+06]
Sparsify removed 16655 nonzeros (71%)
Presolve removed 2784 rows and 3432 columns
Presolve time: 0.19s
Presolved: 1905 rows, 738 columns, 6173 nonzeros
Variable types: 188 continuous, 550 integer (550 binary)
Found heuristic solution: objective 0.1627950
Found heuristic solution: objective 0.1623583
Found heuristic solution: objective 0.0936626

Explored 0 nodes (0 simplex iterations) in 0.24 seconds
Thread count was 4 (of 4 available processors)

Optimal solution found (tolerance 1.00e-04)
Best objective 9.366257406181e-02, best bound 9.366257406181e-02, gap 0.0%

Wrote requested result file 'C:/Users/Soumoku/Downloads/Java/PAMM/output/559.mst'


Gurobi 6.0.4 (win64) logging started 10/07/15 16:56:29

Server capacity available on gurobi-preprod.phx.gapinc.dev - running now
Optimize a model with 4689 rows, 2892 columns and 13387 nonzeros
Coefficient statistics:
  Matrix range    [2e-02, 1e+06]
  Objective range [1e+00, 1e+02]
  Bounds range    [9e-02, 1e+06]
  RHS range       [3e-01, 1e+06]
Sparsify removed 16655 nonzeros (71%)
Presolve removed 2784 rows and 3432 columns
Presolve time: 0.20s
Presolved: 1905 rows, 738 columns, 6173 nonzeros
Variable types: 188 continuous, 550 integer (550 binary)
Found heuristic solution: objective 0.1627950
Found heuristic solution: objective 0.1623583
Found heuristic solution: objective 0.0936626

Explored 0 nodes (0 simplex iterations) in 0.24 seconds
Thread count was 4 (of 4 available processors)

Optimal solution found (tolerance 1.00e-04)
Best objective 9.366257406181e-02, best bound 9.366257406181e-02, gap 0.0%

Wrote requested result file 'C:/Users/Soumoku/Downloads/Java/PAMM/output/559.mst'


Gurobi 6.0.4 (win64) logging started 10/07/15 16:58:38

Server capacity available on gurobi-preprod.phx.gapinc.dev - running now
Optimize a model with 4689 rows, 2892 columns and 13387 nonzeros
Coefficient statistics:
  Matrix range    [2e-02, 1e+06]
  Objective range [1e+00, 1e+02]
  Bounds range    [9e-02, 1e+06]
  RHS range       [3e-01, 1e+06]
Sparsify removed 16655 nonzeros (71%)
Presolve removed 2784 rows and 3432 columns
Presolve time: 0.21s
Presolved: 1905 rows, 738 columns, 6173 nonzeros
Variable types: 188 continuous, 550 integer (550 binary)
Found heuristic solution: objective 0.1627950
Found heuristic solution: objective 0.1623583
Found heuristic solution: objective 0.0936626

Explored 0 nodes (0 simplex iterations) in 0.26 seconds
Thread count was 4 (of 4 available processors)

Optimal solution found (tolerance 1.00e-04)
Best objective 9.366257406181e-02, best bound 9.366257406181e-02, gap 0.0%

Wrote requested result file 'C:/Users/Soumoku/Downloads/Java/PAMM/output/559.mst'


Gurobi 6.0.4 (win64) logging started 10/07/15 17:05:56

Server capacity available on gurobi-preprod.phx.gapinc.dev - running now
Optimize a model with 4689 rows, 2892 columns and 13387 nonzeros
Coefficient statistics:
  Matrix range    [2e-02, 1e+06]
  Objective range [1e+00, 1e+02]
  Bounds range    [9e-02, 1e+06]
  RHS range       [3e-01, 1e+06]
Sparsify removed 16655 nonzeros (71%)
Presolve removed 2784 rows and 3432 columns
Presolve time: 0.25s
Presolved: 1905 rows, 738 columns, 6173 nonzeros
Variable types: 188 continuous, 550 integer (550 binary)
Found heuristic solution: objective 0.1627950
Found heuristic solution: objective 0.1623583
Found heuristic solution: objective 0.0936626

Explored 0 nodes (0 simplex iterations) in 0.30 seconds
Thread count was 4 (of 4 available processors)

Optimal solution found (tolerance 1.00e-04)
Best objective 9.366257406181e-02, best bound 9.366257406181e-02, gap 0.0%

Wrote requested result file 'C:/Users/Soumoku/Downloads/Java/PAMM/output/559.mst'


Gurobi 6.0.4 (win64) logging started 10/07/15 17:11:46

Server capacity available on gurobi-preprod.phx.gapinc.dev - running now
Optimize a model with 4689 rows, 2892 columns and 13387 nonzeros
Coefficient statistics:
  Matrix range    [2e-02, 1e+06]
  Objective range [1e+00, 1e+02]
  Bounds range    [9e-02, 1e+06]
  RHS range       [3e-01, 1e+06]
Sparsify removed 16655 nonzeros (71%)
Presolve removed 2784 rows and 3432 columns
Presolve time: 0.16s
Presolved: 1905 rows, 738 columns, 6173 nonzeros
Variable types: 188 continuous, 550 integer (550 binary)
Found heuristic solution: objective 0.1627950
Found heuristic solution: objective 0.1623583
Found heuristic solution: objective 0.0936626

Explored 0 nodes (0 simplex iterations) in 0.21 seconds
Thread count was 4 (of 4 available processors)

Optimal solution found (tolerance 1.00e-04)
Best objective 9.366257406181e-02, best bound 9.366257406181e-02, gap 0.0%

Wrote requested result file 'C:/Users/Soumoku/Downloads/Java/PAMM/output/559.mst'

